p cnf 63 2709
1 2 3 5 8 11 56 0
-1 -2 0
-1 -3 0
-1 -5 0
-1 -8 0
-1 -11 0
-1 -56 0
-2 -1 0
-2 -3 0
-2 -5 0
-2 -8 0
-2 -11 0
-2 -56 0
-3 -1 0
-3 -2 0
-3 -5 0
-3 -8 0
-3 -11 0
-3 -56 0
-5 -1 0
-5 -2 0
-5 -3 0
-5 -8 0
-5 -11 0
-5 -56 0
-8 -1 0
-8 -2 0
-8 -3 0
-8 -5 0
-8 -11 0
-8 -56 0
-11 -1 0
-11 -2 0
-11 -3 0
-11 -5 0
-11 -8 0
-11 -56 0
-56 -1 0
-56 -2 0
-56 -3 0
-56 -5 0
-56 -8 0
-56 -11 0
1 4 5 6 7 13 58 0
-1 -4 0
-1 -5 0
-1 -6 0
-1 -7 0
-1 -13 0
-1 -58 0
-4 -1 0
-4 -5 0
-4 -6 0
-4 -7 0
-4 -13 0
-4 -58 0
-5 -1 0
-5 -4 0
-5 -6 0
-5 -7 0
-5 -13 0
-5 -58 0
-6 -1 0
-6 -4 0
-6 -5 0
-6 -7 0
-6 -13 0
-6 -58 0
-7 -1 0
-7 -4 0
-7 -5 0
-7 -6 0
-7 -13 0
-7 -58 0
-13 -1 0
-13 -4 0
-13 -5 0
-13 -6 0
-13 -7 0
-13 -58 0
-58 -1 0
-58 -4 0
-58 -5 0
-58 -6 0
-58 -7 0
-58 -13 0
1 46 55 56 57 58 61 0
-1 -46 0
-1 -55 0
-1 -56 0
-1 -57 0
-1 -58 0
-1 -61 0
-46 -1 0
-46 -55 0
-46 -56 0
-46 -57 0
-46 -58 0
-46 -61 0
-55 -1 0
-55 -46 0
-55 -56 0
-55 -57 0
-55 -58 0
-55 -61 0
-56 -1 0
-56 -46 0
-56 -55 0
-56 -57 0
-56 -58 0
-56 -61 0
-57 -1 0
-57 -46 0
-57 -55 0
-57 -56 0
-57 -58 0
-57 -61 0
-58 -1 0
-58 -46 0
-58 -55 0
-58 -56 0
-58 -57 0
-58 -61 0
-61 -1 0
-61 -46 0
-61 -55 0
-61 -56 0
-61 -57 0
-61 -58 0
1 2 3 4 7 10 55 0
-1 -2 0
-1 -3 0
-1 -4 0
-1 -7 0
-1 -10 0
-1 -55 0
-2 -1 0
-2 -3 0
-2 -4 0
-2 -7 0
-2 -10 0
-2 -55 0
-3 -1 0
-3 -2 0
-3 -4 0
-3 -7 0
-3 -10 0
-3 -55 0
-4 -1 0
-4 -2 0
-4 -3 0
-4 -7 0
-4 -10 0
-4 -55 0
-7 -1 0
-7 -2 0
-7 -3 0
-7 -4 0
-7 -10 0
-7 -55 0
-10 -1 0
-10 -2 0
-10 -3 0
-10 -4 0
-10 -7 0
-10 -55 0
-55 -1 0
-55 -2 0
-55 -3 0
-55 -4 0
-55 -7 0
-55 -10 0
1 10 11 12 13 16 19 0
-1 -10 0
-1 -11 0
-1 -12 0
-1 -13 0
-1 -16 0
-1 -19 0
-10 -1 0
-10 -11 0
-10 -12 0
-10 -13 0
-10 -16 0
-10 -19 0
-11 -1 0
-11 -10 0
-11 -12 0
-11 -13 0
-11 -16 0
-11 -19 0
-12 -1 0
-12 -10 0
-12 -11 0
-12 -13 0
-12 -16 0
-12 -19 0
-13 -1 0
-13 -10 0
-13 -11 0
-13 -12 0
-13 -16 0
-13 -19 0
-16 -1 0
-16 -10 0
-16 -11 0
-16 -12 0
-16 -13 0
-16 -19 0
-19 -1 0
-19 -10 0
-19 -11 0
-19 -12 0
-19 -13 0
-19 -16 0
1 4 7 8 9 16 61 0
-1 -4 0
-1 -7 0
-1 -8 0
-1 -9 0
-1 -16 0
-1 -61 0
-4 -1 0
-4 -7 0
-4 -8 0
-4 -9 0
-4 -16 0
-4 -61 0
-7 -1 0
-7 -4 0
-7 -8 0
-7 -9 0
-7 -16 0
-7 -61 0
-8 -1 0
-8 -4 0
-8 -7 0
-8 -9 0
-8 -16 0
-8 -61 0
-9 -1 0
-9 -4 0
-9 -7 0
-9 -8 0
-9 -16 0
-9 -61 0
-16 -1 0
-16 -4 0
-16 -7 0
-16 -8 0
-16 -9 0
-16 -61 0
-61 -1 0
-61 -4 0
-61 -7 0
-61 -8 0
-61 -9 0
-61 -16 0
1 2 3 6 9 12 57 0
-1 -2 0
-1 -3 0
-1 -6 0
-1 -9 0
-1 -12 0
-1 -57 0
-2 -1 0
-2 -3 0
-2 -6 0
-2 -9 0
-2 -12 0
-2 -57 0
-3 -1 0
-3 -2 0
-3 -6 0
-3 -9 0
-3 -12 0
-3 -57 0
-6 -1 0
-6 -2 0
-6 -3 0
-6 -9 0
-6 -12 0
-6 -57 0
-9 -1 0
-9 -2 0
-9 -3 0
-9 -6 0
-9 -12 0
-9 -57 0
-12 -1 0
-12 -2 0
-12 -3 0
-12 -6 0
-12 -9 0
-12 -57 0
-57 -1 0
-57 -2 0
-57 -3 0
-57 -6 0
-57 -9 0
-57 -12 0
2 4 5 6 8 14 59 0
-2 -4 0
-2 -5 0
-2 -6 0
-2 -8 0
-2 -14 0
-2 -59 0
-4 -2 0
-4 -5 0
-4 -6 0
-4 -8 0
-4 -14 0
-4 -59 0
-5 -2 0
-5 -4 0
-5 -6 0
-5 -8 0
-5 -14 0
-5 -59 0
-6 -2 0
-6 -4 0
-6 -5 0
-6 -8 0
-6 -14 0
-6 -59 0
-8 -2 0
-8 -4 0
-8 -5 0
-8 -6 0
-8 -14 0
-8 -59 0
-14 -2 0
-14 -4 0
-14 -5 0
-14 -6 0
-14 -8 0
-14 -59 0
-59 -2 0
-59 -4 0
-59 -5 0
-59 -6 0
-59 -8 0
-59 -14 0
2 47 55 56 57 59 62 0
-2 -47 0
-2 -55 0
-2 -56 0
-2 -57 0
-2 -59 0
-2 -62 0
-47 -2 0
-47 -55 0
-47 -56 0
-47 -57 0
-47 -59 0
-47 -62 0
-55 -2 0
-55 -47 0
-55 -56 0
-55 -57 0
-55 -59 0
-55 -62 0
-56 -2 0
-56 -47 0
-56 -55 0
-56 -57 0
-56 -59 0
-56 -62 0
-57 -2 0
-57 -47 0
-57 -55 0
-57 -56 0
-57 -59 0
-57 -62 0
-59 -2 0
-59 -47 0
-59 -55 0
-59 -56 0
-59 -57 0
-59 -62 0
-62 -2 0
-62 -47 0
-62 -55 0
-62 -56 0
-62 -57 0
-62 -59 0
2 10 11 12 14 17 20 0
-2 -10 0
-2 -11 0
-2 -12 0
-2 -14 0
-2 -17 0
-2 -20 0
-10 -2 0
-10 -11 0
-10 -12 0
-10 -14 0
-10 -17 0
-10 -20 0
-11 -2 0
-11 -10 0
-11 -12 0
-11 -14 0
-11 -17 0
-11 -20 0
-12 -2 0
-12 -10 0
-12 -11 0
-12 -14 0
-12 -17 0
-12 -20 0
-14 -2 0
-14 -10 0
-14 -11 0
-14 -12 0
-14 -17 0
-14 -20 0
-17 -2 0
-17 -10 0
-17 -11 0
-17 -12 0
-17 -14 0
-17 -20 0
-20 -2 0
-20 -10 0
-20 -11 0
-20 -12 0
-20 -14 0
-20 -17 0
2 5 7 8 9 17 62 0
-2 -5 0
-2 -7 0
-2 -8 0
-2 -9 0
-2 -17 0
-2 -62 0
-5 -2 0
-5 -7 0
-5 -8 0
-5 -9 0
-5 -17 0
-5 -62 0
-7 -2 0
-7 -5 0
-7 -8 0
-7 -9 0
-7 -17 0
-7 -62 0
-8 -2 0
-8 -5 0
-8 -7 0
-8 -9 0
-8 -17 0
-8 -62 0
-9 -2 0
-9 -5 0
-9 -7 0
-9 -8 0
-9 -17 0
-9 -62 0
-17 -2 0
-17 -5 0
-17 -7 0
-17 -8 0
-17 -9 0
-17 -62 0
-62 -2 0
-62 -5 0
-62 -7 0
-62 -8 0
-62 -9 0
-62 -17 0
3 4 5 6 9 15 60 0
-3 -4 0
-3 -5 0
-3 -6 0
-3 -9 0
-3 -15 0
-3 -60 0
-4 -3 0
-4 -5 0
-4 -6 0
-4 -9 0
-4 -15 0
-4 -60 0
-5 -3 0
-5 -4 0
-5 -6 0
-5 -9 0
-5 -15 0
-5 -60 0
-6 -3 0
-6 -4 0
-6 -5 0
-6 -9 0
-6 -15 0
-6 -60 0
-9 -3 0
-9 -4 0
-9 -5 0
-9 -6 0
-9 -15 0
-9 -60 0
-15 -3 0
-15 -4 0
-15 -5 0
-15 -6 0
-15 -9 0
-15 -60 0
-60 -3 0
-60 -4 0
-60 -5 0
-60 -6 0
-60 -9 0
-60 -15 0
3 48 55 56 57 60 63 0
-3 -48 0
-3 -55 0
-3 -56 0
-3 -57 0
-3 -60 0
-3 -63 0
-48 -3 0
-48 -55 0
-48 -56 0
-48 -57 0
-48 -60 0
-48 -63 0
-55 -3 0
-55 -48 0
-55 -56 0
-55 -57 0
-55 -60 0
-55 -63 0
-56 -3 0
-56 -48 0
-56 -55 0
-56 -57 0
-56 -60 0
-56 -63 0
-57 -3 0
-57 -48 0
-57 -55 0
-57 -56 0
-57 -60 0
-57 -63 0
-60 -3 0
-60 -48 0
-60 -55 0
-60 -56 0
-60 -57 0
-60 -63 0
-63 -3 0
-63 -48 0
-63 -55 0
-63 -56 0
-63 -57 0
-63 -60 0
3 10 11 12 15 18 21 0
-3 -10 0
-3 -11 0
-3 -12 0
-3 -15 0
-3 -18 0
-3 -21 0
-10 -3 0
-10 -11 0
-10 -12 0
-10 -15 0
-10 -18 0
-10 -21 0
-11 -3 0
-11 -10 0
-11 -12 0
-11 -15 0
-11 -18 0
-11 -21 0
-12 -3 0
-12 -10 0
-12 -11 0
-12 -15 0
-12 -18 0
-12 -21 0
-15 -3 0
-15 -10 0
-15 -11 0
-15 -12 0
-15 -18 0
-15 -21 0
-18 -3 0
-18 -10 0
-18 -11 0
-18 -12 0
-18 -15 0
-18 -21 0
-21 -3 0
-21 -10 0
-21 -11 0
-21 -12 0
-21 -15 0
-21 -18 0
3 6 7 8 9 18 63 0
-3 -6 0
-3 -7 0
-3 -8 0
-3 -9 0
-3 -18 0
-3 -63 0
-6 -3 0
-6 -7 0
-6 -8 0
-6 -9 0
-6 -18 0
-6 -63 0
-7 -3 0
-7 -6 0
-7 -8 0
-7 -9 0
-7 -18 0
-7 -63 0
-8 -3 0
-8 -6 0
-8 -7 0
-8 -9 0
-8 -18 0
-8 -63 0
-9 -3 0
-9 -6 0
-9 -7 0
-9 -8 0
-9 -18 0
-9 -63 0
-18 -3 0
-18 -6 0
-18 -7 0
-18 -8 0
-18 -9 0
-18 -63 0
-63 -3 0
-63 -6 0
-63 -7 0
-63 -8 0
-63 -9 0
-63 -18 0
4 49 55 58 59 60 61 0
-4 -49 0
-4 -55 0
-4 -58 0
-4 -59 0
-4 -60 0
-4 -61 0
-49 -4 0
-49 -55 0
-49 -58 0
-49 -59 0
-49 -60 0
-49 -61 0
-55 -4 0
-55 -49 0
-55 -58 0
-55 -59 0
-55 -60 0
-55 -61 0
-58 -4 0
-58 -49 0
-58 -55 0
-58 -59 0
-58 -60 0
-58 -61 0
-59 -4 0
-59 -49 0
-59 -55 0
-59 -58 0
-59 -60 0
-59 -61 0
-60 -4 0
-60 -49 0
-60 -55 0
-60 -58 0
-60 -59 0
-60 -61 0
-61 -4 0
-61 -49 0
-61 -55 0
-61 -58 0
-61 -59 0
-61 -60 0
4 10 13 14 15 16 22 0
-4 -10 0
-4 -13 0
-4 -14 0
-4 -15 0
-4 -16 0
-4 -22 0
-10 -4 0
-10 -13 0
-10 -14 0
-10 -15 0
-10 -16 0
-10 -22 0
-13 -4 0
-13 -10 0
-13 -14 0
-13 -15 0
-13 -16 0
-13 -22 0
-14 -4 0
-14 -10 0
-14 -13 0
-14 -15 0
-14 -16 0
-14 -22 0
-15 -4 0
-15 -10 0
-15 -13 0
-15 -14 0
-15 -16 0
-15 -22 0
-16 -4 0
-16 -10 0
-16 -13 0
-16 -14 0
-16 -15 0
-16 -22 0
-22 -4 0
-22 -10 0
-22 -13 0
-22 -14 0
-22 -15 0
-22 -16 0
5 50 56 58 59 60 62 0
-5 -50 0
-5 -56 0
-5 -58 0
-5 -59 0
-5 -60 0
-5 -62 0
-50 -5 0
-50 -56 0
-50 -58 0
-50 -59 0
-50 -60 0
-50 -62 0
-56 -5 0
-56 -50 0
-56 -58 0
-56 -59 0
-56 -60 0
-56 -62 0
-58 -5 0
-58 -50 0
-58 -56 0
-58 -59 0
-58 -60 0
-58 -62 0
-59 -5 0
-59 -50 0
-59 -56 0
-59 -58 0
-59 -60 0
-59 -62 0
-60 -5 0
-60 -50 0
-60 -56 0
-60 -58 0
-60 -59 0
-60 -62 0
-62 -5 0
-62 -50 0
-62 -56 0
-62 -58 0
-62 -59 0
-62 -60 0
5 11 13 14 15 17 23 0
-5 -11 0
-5 -13 0
-5 -14 0
-5 -15 0
-5 -17 0
-5 -23 0
-11 -5 0
-11 -13 0
-11 -14 0
-11 -15 0
-11 -17 0
-11 -23 0
-13 -5 0
-13 -11 0
-13 -14 0
-13 -15 0
-13 -17 0
-13 -23 0
-14 -5 0
-14 -11 0
-14 -13 0
-14 -15 0
-14 -17 0
-14 -23 0
-15 -5 0
-15 -11 0
-15 -13 0
-15 -14 0
-15 -17 0
-15 -23 0
-17 -5 0
-17 -11 0
-17 -13 0
-17 -14 0
-17 -15 0
-17 -23 0
-23 -5 0
-23 -11 0
-23 -13 0
-23 -14 0
-23 -15 0
-23 -17 0
6 51 57 58 59 60 63 0
-6 -51 0
-6 -57 0
-6 -58 0
-6 -59 0
-6 -60 0
-6 -63 0
-51 -6 0
-51 -57 0
-51 -58 0
-51 -59 0
-51 -60 0
-51 -63 0
-57 -6 0
-57 -51 0
-57 -58 0
-57 -59 0
-57 -60 0
-57 -63 0
-58 -6 0
-58 -51 0
-58 -57 0
-58 -59 0
-58 -60 0
-58 -63 0
-59 -6 0
-59 -51 0
-59 -57 0
-59 -58 0
-59 -60 0
-59 -63 0
-60 -6 0
-60 -51 0
-60 -57 0
-60 -58 0
-60 -59 0
-60 -63 0
-63 -6 0
-63 -51 0
-63 -57 0
-63 -58 0
-63 -59 0
-63 -60 0
6 12 13 14 15 18 24 0
-6 -12 0
-6 -13 0
-6 -14 0
-6 -15 0
-6 -18 0
-6 -24 0
-12 -6 0
-12 -13 0
-12 -14 0
-12 -15 0
-12 -18 0
-12 -24 0
-13 -6 0
-13 -12 0
-13 -14 0
-13 -15 0
-13 -18 0
-13 -24 0
-14 -6 0
-14 -12 0
-14 -13 0
-14 -15 0
-14 -18 0
-14 -24 0
-15 -6 0
-15 -12 0
-15 -13 0
-15 -14 0
-15 -18 0
-15 -24 0
-18 -6 0
-18 -12 0
-18 -13 0
-18 -14 0
-18 -15 0
-18 -24 0
-24 -6 0
-24 -12 0
-24 -13 0
-24 -14 0
-24 -15 0
-24 -18 0
7 52 55 58 61 62 63 0
-7 -52 0
-7 -55 0
-7 -58 0
-7 -61 0
-7 -62 0
-7 -63 0
-52 -7 0
-52 -55 0
-52 -58 0
-52 -61 0
-52 -62 0
-52 -63 0
-55 -7 0
-55 -52 0
-55 -58 0
-55 -61 0
-55 -62 0
-55 -63 0
-58 -7 0
-58 -52 0
-58 -55 0
-58 -61 0
-58 -62 0
-58 -63 0
-61 -7 0
-61 -52 0
-61 -55 0
-61 -58 0
-61 -62 0
-61 -63 0
-62 -7 0
-62 -52 0
-62 -55 0
-62 -58 0
-62 -61 0
-62 -63 0
-63 -7 0
-63 -52 0
-63 -55 0
-63 -58 0
-63 -61 0
-63 -62 0
7 10 13 16 17 18 25 0
-7 -10 0
-7 -13 0
-7 -16 0
-7 -17 0
-7 -18 0
-7 -25 0
-10 -7 0
-10 -13 0
-10 -16 0
-10 -17 0
-10 -18 0
-10 -25 0
-13 -7 0
-13 -10 0
-13 -16 0
-13 -17 0
-13 -18 0
-13 -25 0
-16 -7 0
-16 -10 0
-16 -13 0
-16 -17 0
-16 -18 0
-16 -25 0
-17 -7 0
-17 -10 0
-17 -13 0
-17 -16 0
-17 -18 0
-17 -25 0
-18 -7 0
-18 -10 0
-18 -13 0
-18 -16 0
-18 -17 0
-18 -25 0
-25 -7 0
-25 -10 0
-25 -13 0
-25 -16 0
-25 -17 0
-25 -18 0
8 53 56 59 61 62 63 0
-8 -53 0
-8 -56 0
-8 -59 0
-8 -61 0
-8 -62 0
-8 -63 0
-53 -8 0
-53 -56 0
-53 -59 0
-53 -61 0
-53 -62 0
-53 -63 0
-56 -8 0
-56 -53 0
-56 -59 0
-56 -61 0
-56 -62 0
-56 -63 0
-59 -8 0
-59 -53 0
-59 -56 0
-59 -61 0
-59 -62 0
-59 -63 0
-61 -8 0
-61 -53 0
-61 -56 0
-61 -59 0
-61 -62 0
-61 -63 0
-62 -8 0
-62 -53 0
-62 -56 0
-62 -59 0
-62 -61 0
-62 -63 0
-63 -8 0
-63 -53 0
-63 -56 0
-63 -59 0
-63 -61 0
-63 -62 0
8 11 14 16 17 18 26 0
-8 -11 0
-8 -14 0
-8 -16 0
-8 -17 0
-8 -18 0
-8 -26 0
-11 -8 0
-11 -14 0
-11 -16 0
-11 -17 0
-11 -18 0
-11 -26 0
-14 -8 0
-14 -11 0
-14 -16 0
-14 -17 0
-14 -18 0
-14 -26 0
-16 -8 0
-16 -11 0
-16 -14 0
-16 -17 0
-16 -18 0
-16 -26 0
-17 -8 0
-17 -11 0
-17 -14 0
-17 -16 0
-17 -18 0
-17 -26 0
-18 -8 0
-18 -11 0
-18 -14 0
-18 -16 0
-18 -17 0
-18 -26 0
-26 -8 0
-26 -11 0
-26 -14 0
-26 -16 0
-26 -17 0
-26 -18 0
9 54 57 60 61 62 63 0
-9 -54 0
-9 -57 0
-9 -60 0
-9 -61 0
-9 -62 0
-9 -63 0
-54 -9 0
-54 -57 0
-54 -60 0
-54 -61 0
-54 -62 0
-54 -63 0
-57 -9 0
-57 -54 0
-57 -60 0
-57 -61 0
-57 -62 0
-57 -63 0
-60 -9 0
-60 -54 0
-60 -57 0
-60 -61 0
-60 -62 0
-60 -63 0
-61 -9 0
-61 -54 0
-61 -57 0
-61 -60 0
-61 -62 0
-61 -63 0
-62 -9 0
-62 -54 0
-62 -57 0
-62 -60 0
-62 -61 0
-62 -63 0
-63 -9 0
-63 -54 0
-63 -57 0
-63 -60 0
-63 -61 0
-63 -62 0
9 12 15 16 17 18 27 0
-9 -12 0
-9 -15 0
-9 -16 0
-9 -17 0
-9 -18 0
-9 -27 0
-12 -9 0
-12 -15 0
-12 -16 0
-12 -17 0
-12 -18 0
-12 -27 0
-15 -9 0
-15 -12 0
-15 -16 0
-15 -17 0
-15 -18 0
-15 -27 0
-16 -9 0
-16 -12 0
-16 -15 0
-16 -17 0
-16 -18 0
-16 -27 0
-17 -9 0
-17 -12 0
-17 -15 0
-17 -16 0
-17 -18 0
-17 -27 0
-18 -9 0
-18 -12 0
-18 -15 0
-18 -16 0
-18 -17 0
-18 -27 0
-27 -9 0
-27 -12 0
-27 -15 0
-27 -16 0
-27 -17 0
-27 -18 0
10 19 20 21 22 25 28 0
-10 -19 0
-10 -20 0
-10 -21 0
-10 -22 0
-10 -25 0
-10 -28 0
-19 -10 0
-19 -20 0
-19 -21 0
-19 -22 0
-19 -25 0
-19 -28 0
-20 -10 0
-20 -19 0
-20 -21 0
-20 -22 0
-20 -25 0
-20 -28 0
-21 -10 0
-21 -19 0
-21 -20 0
-21 -22 0
-21 -25 0
-21 -28 0
-22 -10 0
-22 -19 0
-22 -20 0
-22 -21 0
-22 -25 0
-22 -28 0
-25 -10 0
-25 -19 0
-25 -20 0
-25 -21 0
-25 -22 0
-25 -28 0
-28 -10 0
-28 -19 0
-28 -20 0
-28 -21 0
-28 -22 0
-28 -25 0
11 19 20 21 23 26 29 0
-11 -19 0
-11 -20 0
-11 -21 0
-11 -23 0
-11 -26 0
-11 -29 0
-19 -11 0
-19 -20 0
-19 -21 0
-19 -23 0
-19 -26 0
-19 -29 0
-20 -11 0
-20 -19 0
-20 -21 0
-20 -23 0
-20 -26 0
-20 -29 0
-21 -11 0
-21 -19 0
-21 -20 0
-21 -23 0
-21 -26 0
-21 -29 0
-23 -11 0
-23 -19 0
-23 -20 0
-23 -21 0
-23 -26 0
-23 -29 0
-26 -11 0
-26 -19 0
-26 -20 0
-26 -21 0
-26 -23 0
-26 -29 0
-29 -11 0
-29 -19 0
-29 -20 0
-29 -21 0
-29 -23 0
-29 -26 0
12 19 20 21 24 27 30 0
-12 -19 0
-12 -20 0
-12 -21 0
-12 -24 0
-12 -27 0
-12 -30 0
-19 -12 0
-19 -20 0
-19 -21 0
-19 -24 0
-19 -27 0
-19 -30 0
-20 -12 0
-20 -19 0
-20 -21 0
-20 -24 0
-20 -27 0
-20 -30 0
-21 -12 0
-21 -19 0
-21 -20 0
-21 -24 0
-21 -27 0
-21 -30 0
-24 -12 0
-24 -19 0
-24 -20 0
-24 -21 0
-24 -27 0
-24 -30 0
-27 -12 0
-27 -19 0
-27 -20 0
-27 -21 0
-27 -24 0
-27 -30 0
-30 -12 0
-30 -19 0
-30 -20 0
-30 -21 0
-30 -24 0
-30 -27 0
13 19 22 23 24 25 31 0
-13 -19 0
-13 -22 0
-13 -23 0
-13 -24 0
-13 -25 0
-13 -31 0
-19 -13 0
-19 -22 0
-19 -23 0
-19 -24 0
-19 -25 0
-19 -31 0
-22 -13 0
-22 -19 0
-22 -23 0
-22 -24 0
-22 -25 0
-22 -31 0
-23 -13 0
-23 -19 0
-23 -22 0
-23 -24 0
-23 -25 0
-23 -31 0
-24 -13 0
-24 -19 0
-24 -22 0
-24 -23 0
-24 -25 0
-24 -31 0
-25 -13 0
-25 -19 0
-25 -22 0
-25 -23 0
-25 -24 0
-25 -31 0
-31 -13 0
-31 -19 0
-31 -22 0
-31 -23 0
-31 -24 0
-31 -25 0
14 20 22 23 24 26 32 0
-14 -20 0
-14 -22 0
-14 -23 0
-14 -24 0
-14 -26 0
-14 -32 0
-20 -14 0
-20 -22 0
-20 -23 0
-20 -24 0
-20 -26 0
-20 -32 0
-22 -14 0
-22 -20 0
-22 -23 0
-22 -24 0
-22 -26 0
-22 -32 0
-23 -14 0
-23 -20 0
-23 -22 0
-23 -24 0
-23 -26 0
-23 -32 0
-24 -14 0
-24 -20 0
-24 -22 0
-24 -23 0
-24 -26 0
-24 -32 0
-26 -14 0
-26 -20 0
-26 -22 0
-26 -23 0
-26 -24 0
-26 -32 0
-32 -14 0
-32 -20 0
-32 -22 0
-32 -23 0
-32 -24 0
-32 -26 0
15 21 22 23 24 27 33 0
-15 -21 0
-15 -22 0
-15 -23 0
-15 -24 0
-15 -27 0
-15 -33 0
-21 -15 0
-21 -22 0
-21 -23 0
-21 -24 0
-21 -27 0
-21 -33 0
-22 -15 0
-22 -21 0
-22 -23 0
-22 -24 0
-22 -27 0
-22 -33 0
-23 -15 0
-23 -21 0
-23 -22 0
-23 -24 0
-23 -27 0
-23 -33 0
-24 -15 0
-24 -21 0
-24 -22 0
-24 -23 0
-24 -27 0
-24 -33 0
-27 -15 0
-27 -21 0
-27 -22 0
-27 -23 0
-27 -24 0
-27 -33 0
-33 -15 0
-33 -21 0
-33 -22 0
-33 -23 0
-33 -24 0
-33 -27 0
16 19 22 25 26 27 34 0
-16 -19 0
-16 -22 0
-16 -25 0
-16 -26 0
-16 -27 0
-16 -34 0
-19 -16 0
-19 -22 0
-19 -25 0
-19 -26 0
-19 -27 0
-19 -34 0
-22 -16 0
-22 -19 0
-22 -25 0
-22 -26 0
-22 -27 0
-22 -34 0
-25 -16 0
-25 -19 0
-25 -22 0
-25 -26 0
-25 -27 0
-25 -34 0
-26 -16 0
-26 -19 0
-26 -22 0
-26 -25 0
-26 -27 0
-26 -34 0
-27 -16 0
-27 -19 0
-27 -22 0
-27 -25 0
-27 -26 0
-27 -34 0
-34 -16 0
-34 -19 0
-34 -22 0
-34 -25 0
-34 -26 0
-34 -27 0
17 20 23 25 26 27 35 0
-17 -20 0
-17 -23 0
-17 -25 0
-17 -26 0
-17 -27 0
-17 -35 0
-20 -17 0
-20 -23 0
-20 -25 0
-20 -26 0
-20 -27 0
-20 -35 0
-23 -17 0
-23 -20 0
-23 -25 0
-23 -26 0
-23 -27 0
-23 -35 0
-25 -17 0
-25 -20 0
-25 -23 0
-25 -26 0
-25 -27 0
-25 -35 0
-26 -17 0
-26 -20 0
-26 -23 0
-26 -25 0
-26 -27 0
-26 -35 0
-27 -17 0
-27 -20 0
-27 -23 0
-27 -25 0
-27 -26 0
-27 -35 0
-35 -17 0
-35 -20 0
-35 -23 0
-35 -25 0
-35 -26 0
-35 -27 0
18 21 24 25 26 27 36 0
-18 -21 0
-18 -24 0
-18 -25 0
-18 -26 0
-18 -27 0
-18 -36 0
-21 -18 0
-21 -24 0
-21 -25 0
-21 -26 0
-21 -27 0
-21 -36 0
-24 -18 0
-24 -21 0
-24 -25 0
-24 -26 0
-24 -27 0
-24 -36 0
-25 -18 0
-25 -21 0
-25 -24 0
-25 -26 0
-25 -27 0
-25 -36 0
-26 -18 0
-26 -21 0
-26 -24 0
-26 -25 0
-26 -27 0
-26 -36 0
-27 -18 0
-27 -21 0
-27 -24 0
-27 -25 0
-27 -26 0
-27 -36 0
-36 -18 0
-36 -21 0
-36 -24 0
-36 -25 0
-36 -26 0
-36 -27 0
19 28 29 30 31 34 37 0
-19 -28 0
-19 -29 0
-19 -30 0
-19 -31 0
-19 -34 0
-19 -37 0
-28 -19 0
-28 -29 0
-28 -30 0
-28 -31 0
-28 -34 0
-28 -37 0
-29 -19 0
-29 -28 0
-29 -30 0
-29 -31 0
-29 -34 0
-29 -37 0
-30 -19 0
-30 -28 0
-30 -29 0
-30 -31 0
-30 -34 0
-30 -37 0
-31 -19 0
-31 -28 0
-31 -29 0
-31 -30 0
-31 -34 0
-31 -37 0
-34 -19 0
-34 -28 0
-34 -29 0
-34 -30 0
-34 -31 0
-34 -37 0
-37 -19 0
-37 -28 0
-37 -29 0
-37 -30 0
-37 -31 0
-37 -34 0
20 28 29 30 32 35 38 0
-20 -28 0
-20 -29 0
-20 -30 0
-20 -32 0
-20 -35 0
-20 -38 0
-28 -20 0
-28 -29 0
-28 -30 0
-28 -32 0
-28 -35 0
-28 -38 0
-29 -20 0
-29 -28 0
-29 -30 0
-29 -32 0
-29 -35 0
-29 -38 0
-30 -20 0
-30 -28 0
-30 -29 0
-30 -32 0
-30 -35 0
-30 -38 0
-32 -20 0
-32 -28 0
-32 -29 0
-32 -30 0
-32 -35 0
-32 -38 0
-35 -20 0
-35 -28 0
-35 -29 0
-35 -30 0
-35 -32 0
-35 -38 0
-38 -20 0
-38 -28 0
-38 -29 0
-38 -30 0
-38 -32 0
-38 -35 0
21 28 29 30 33 36 39 0
-21 -28 0
-21 -29 0
-21 -30 0
-21 -33 0
-21 -36 0
-21 -39 0
-28 -21 0
-28 -29 0
-28 -30 0
-28 -33 0
-28 -36 0
-28 -39 0
-29 -21 0
-29 -28 0
-29 -30 0
-29 -33 0
-29 -36 0
-29 -39 0
-30 -21 0
-30 -28 0
-30 -29 0
-30 -33 0
-30 -36 0
-30 -39 0
-33 -21 0
-33 -28 0
-33 -29 0
-33 -30 0
-33 -36 0
-33 -39 0
-36 -21 0
-36 -28 0
-36 -29 0
-36 -30 0
-36 -33 0
-36 -39 0
-39 -21 0
-39 -28 0
-39 -29 0
-39 -30 0
-39 -33 0
-39 -36 0
22 28 31 32 33 34 40 0
-22 -28 0
-22 -31 0
-22 -32 0
-22 -33 0
-22 -34 0
-22 -40 0
-28 -22 0
-28 -31 0
-28 -32 0
-28 -33 0
-28 -34 0
-28 -40 0
-31 -22 0
-31 -28 0
-31 -32 0
-31 -33 0
-31 -34 0
-31 -40 0
-32 -22 0
-32 -28 0
-32 -31 0
-32 -33 0
-32 -34 0
-32 -40 0
-33 -22 0
-33 -28 0
-33 -31 0
-33 -32 0
-33 -34 0
-33 -40 0
-34 -22 0
-34 -28 0
-34 -31 0
-34 -32 0
-34 -33 0
-34 -40 0
-40 -22 0
-40 -28 0
-40 -31 0
-40 -32 0
-40 -33 0
-40 -34 0
23 29 31 32 33 35 41 0
-23 -29 0
-23 -31 0
-23 -32 0
-23 -33 0
-23 -35 0
-23 -41 0
-29 -23 0
-29 -31 0
-29 -32 0
-29 -33 0
-29 -35 0
-29 -41 0
-31 -23 0
-31 -29 0
-31 -32 0
-31 -33 0
-31 -35 0
-31 -41 0
-32 -23 0
-32 -29 0
-32 -31 0
-32 -33 0
-32 -35 0
-32 -41 0
-33 -23 0
-33 -29 0
-33 -31 0
-33 -32 0
-33 -35 0
-33 -41 0
-35 -23 0
-35 -29 0
-35 -31 0
-35 -32 0
-35 -33 0
-35 -41 0
-41 -23 0
-41 -29 0
-41 -31 0
-41 -32 0
-41 -33 0
-41 -35 0
24 30 31 32 33 36 42 0
-24 -30 0
-24 -31 0
-24 -32 0
-24 -33 0
-24 -36 0
-24 -42 0
-30 -24 0
-30 -31 0
-30 -32 0
-30 -33 0
-30 -36 0
-30 -42 0
-31 -24 0
-31 -30 0
-31 -32 0
-31 -33 0
-31 -36 0
-31 -42 0
-32 -24 0
-32 -30 0
-32 -31 0
-32 -33 0
-32 -36 0
-32 -42 0
-33 -24 0
-33 -30 0
-33 -31 0
-33 -32 0
-33 -36 0
-33 -42 0
-36 -24 0
-36 -30 0
-36 -31 0
-36 -32 0
-36 -33 0
-36 -42 0
-42 -24 0
-42 -30 0
-42 -31 0
-42 -32 0
-42 -33 0
-42 -36 0
25 28 31 34 35 36 43 0
-25 -28 0
-25 -31 0
-25 -34 0
-25 -35 0
-25 -36 0
-25 -43 0
-28 -25 0
-28 -31 0
-28 -34 0
-28 -35 0
-28 -36 0
-28 -43 0
-31 -25 0
-31 -28 0
-31 -34 0
-31 -35 0
-31 -36 0
-31 -43 0
-34 -25 0
-34 -28 0
-34 -31 0
-34 -35 0
-34 -36 0
-34 -43 0
-35 -25 0
-35 -28 0
-35 -31 0
-35 -34 0
-35 -36 0
-35 -43 0
-36 -25 0
-36 -28 0
-36 -31 0
-36 -34 0
-36 -35 0
-36 -43 0
-43 -25 0
-43 -28 0
-43 -31 0
-43 -34 0
-43 -35 0
-43 -36 0
26 29 32 34 35 36 44 0
-26 -29 0
-26 -32 0
-26 -34 0
-26 -35 0
-26 -36 0
-26 -44 0
-29 -26 0
-29 -32 0
-29 -34 0
-29 -35 0
-29 -36 0
-29 -44 0
-32 -26 0
-32 -29 0
-32 -34 0
-32 -35 0
-32 -36 0
-32 -44 0
-34 -26 0
-34 -29 0
-34 -32 0
-34 -35 0
-34 -36 0
-34 -44 0
-35 -26 0
-35 -29 0
-35 -32 0
-35 -34 0
-35 -36 0
-35 -44 0
-36 -26 0
-36 -29 0
-36 -32 0
-36 -34 0
-36 -35 0
-36 -44 0
-44 -26 0
-44 -29 0
-44 -32 0
-44 -34 0
-44 -35 0
-44 -36 0
27 30 33 34 35 36 45 0
-27 -30 0
-27 -33 0
-27 -34 0
-27 -35 0
-27 -36 0
-27 -45 0
-30 -27 0
-30 -33 0
-30 -34 0
-30 -35 0
-30 -36 0
-30 -45 0
-33 -27 0
-33 -30 0
-33 -34 0
-33 -35 0
-33 -36 0
-33 -45 0
-34 -27 0
-34 -30 0
-34 -33 0
-34 -35 0
-34 -36 0
-34 -45 0
-35 -27 0
-35 -30 0
-35 -33 0
-35 -34 0
-35 -36 0
-35 -45 0
-36 -27 0
-36 -30 0
-36 -33 0
-36 -34 0
-36 -35 0
-36 -45 0
-45 -27 0
-45 -30 0
-45 -33 0
-45 -34 0
-45 -35 0
-45 -36 0
28 37 38 39 40 43 46 0
-28 -37 0
-28 -38 0
-28 -39 0
-28 -40 0
-28 -43 0
-28 -46 0
-37 -28 0
-37 -38 0
-37 -39 0
-37 -40 0
-37 -43 0
-37 -46 0
-38 -28 0
-38 -37 0
-38 -39 0
-38 -40 0
-38 -43 0
-38 -46 0
-39 -28 0
-39 -37 0
-39 -38 0
-39 -40 0
-39 -43 0
-39 -46 0
-40 -28 0
-40 -37 0
-40 -38 0
-40 -39 0
-40 -43 0
-40 -46 0
-43 -28 0
-43 -37 0
-43 -38 0
-43 -39 0
-43 -40 0
-43 -46 0
-46 -28 0
-46 -37 0
-46 -38 0
-46 -39 0
-46 -40 0
-46 -43 0
29 37 38 39 41 44 47 0
-29 -37 0
-29 -38 0
-29 -39 0
-29 -41 0
-29 -44 0
-29 -47 0
-37 -29 0
-37 -38 0
-37 -39 0
-37 -41 0
-37 -44 0
-37 -47 0
-38 -29 0
-38 -37 0
-38 -39 0
-38 -41 0
-38 -44 0
-38 -47 0
-39 -29 0
-39 -37 0
-39 -38 0
-39 -41 0
-39 -44 0
-39 -47 0
-41 -29 0
-41 -37 0
-41 -38 0
-41 -39 0
-41 -44 0
-41 -47 0
-44 -29 0
-44 -37 0
-44 -38 0
-44 -39 0
-44 -41 0
-44 -47 0
-47 -29 0
-47 -37 0
-47 -38 0
-47 -39 0
-47 -41 0
-47 -44 0
30 37 38 39 42 45 48 0
-30 -37 0
-30 -38 0
-30 -39 0
-30 -42 0
-30 -45 0
-30 -48 0
-37 -30 0
-37 -38 0
-37 -39 0
-37 -42 0
-37 -45 0
-37 -48 0
-38 -30 0
-38 -37 0
-38 -39 0
-38 -42 0
-38 -45 0
-38 -48 0
-39 -30 0
-39 -37 0
-39 -38 0
-39 -42 0
-39 -45 0
-39 -48 0
-42 -30 0
-42 -37 0
-42 -38 0
-42 -39 0
-42 -45 0
-42 -48 0
-45 -30 0
-45 -37 0
-45 -38 0
-45 -39 0
-45 -42 0
-45 -48 0
-48 -30 0
-48 -37 0
-48 -38 0
-48 -39 0
-48 -42 0
-48 -45 0
31 37 40 41 42 43 49 0
-31 -37 0
-31 -40 0
-31 -41 0
-31 -42 0
-31 -43 0
-31 -49 0
-37 -31 0
-37 -40 0
-37 -41 0
-37 -42 0
-37 -43 0
-37 -49 0
-40 -31 0
-40 -37 0
-40 -41 0
-40 -42 0
-40 -43 0
-40 -49 0
-41 -31 0
-41 -37 0
-41 -40 0
-41 -42 0
-41 -43 0
-41 -49 0
-42 -31 0
-42 -37 0
-42 -40 0
-42 -41 0
-42 -43 0
-42 -49 0
-43 -31 0
-43 -37 0
-43 -40 0
-43 -41 0
-43 -42 0
-43 -49 0
-49 -31 0
-49 -37 0
-49 -40 0
-49 -41 0
-49 -42 0
-49 -43 0
32 38 40 41 42 44 50 0
-32 -38 0
-32 -40 0
-32 -41 0
-32 -42 0
-32 -44 0
-32 -50 0
-38 -32 0
-38 -40 0
-38 -41 0
-38 -42 0
-38 -44 0
-38 -50 0
-40 -32 0
-40 -38 0
-40 -41 0
-40 -42 0
-40 -44 0
-40 -50 0
-41 -32 0
-41 -38 0
-41 -40 0
-41 -42 0
-41 -44 0
-41 -50 0
-42 -32 0
-42 -38 0
-42 -40 0
-42 -41 0
-42 -44 0
-42 -50 0
-44 -32 0
-44 -38 0
-44 -40 0
-44 -41 0
-44 -42 0
-44 -50 0
-50 -32 0
-50 -38 0
-50 -40 0
-50 -41 0
-50 -42 0
-50 -44 0
33 39 40 41 42 45 51 0
-33 -39 0
-33 -40 0
-33 -41 0
-33 -42 0
-33 -45 0
-33 -51 0
-39 -33 0
-39 -40 0
-39 -41 0
-39 -42 0
-39 -45 0
-39 -51 0
-40 -33 0
-40 -39 0
-40 -41 0
-40 -42 0
-40 -45 0
-40 -51 0
-41 -33 0
-41 -39 0
-41 -40 0
-41 -42 0
-41 -45 0
-41 -51 0
-42 -33 0
-42 -39 0
-42 -40 0
-42 -41 0
-42 -45 0
-42 -51 0
-45 -33 0
-45 -39 0
-45 -40 0
-45 -41 0
-45 -42 0
-45 -51 0
-51 -33 0
-51 -39 0
-51 -40 0
-51 -41 0
-51 -42 0
-51 -45 0
34 37 40 43 44 45 52 0
-34 -37 0
-34 -40 0
-34 -43 0
-34 -44 0
-34 -45 0
-34 -52 0
-37 -34 0
-37 -40 0
-37 -43 0
-37 -44 0
-37 -45 0
-37 -52 0
-40 -34 0
-40 -37 0
-40 -43 0
-40 -44 0
-40 -45 0
-40 -52 0
-43 -34 0
-43 -37 0
-43 -40 0
-43 -44 0
-43 -45 0
-43 -52 0
-44 -34 0
-44 -37 0
-44 -40 0
-44 -43 0
-44 -45 0
-44 -52 0
-45 -34 0
-45 -37 0
-45 -40 0
-45 -43 0
-45 -44 0
-45 -52 0
-52 -34 0
-52 -37 0
-52 -40 0
-52 -43 0
-52 -44 0
-52 -45 0
35 38 41 43 44 45 53 0
-35 -38 0
-35 -41 0
-35 -43 0
-35 -44 0
-35 -45 0
-35 -53 0
-38 -35 0
-38 -41 0
-38 -43 0
-38 -44 0
-38 -45 0
-38 -53 0
-41 -35 0
-41 -38 0
-41 -43 0
-41 -44 0
-41 -45 0
-41 -53 0
-43 -35 0
-43 -38 0
-43 -41 0
-43 -44 0
-43 -45 0
-43 -53 0
-44 -35 0
-44 -38 0
-44 -41 0
-44 -43 0
-44 -45 0
-44 -53 0
-45 -35 0
-45 -38 0
-45 -41 0
-45 -43 0
-45 -44 0
-45 -53 0
-53 -35 0
-53 -38 0
-53 -41 0
-53 -43 0
-53 -44 0
-53 -45 0
36 39 42 43 44 45 54 0
-36 -39 0
-36 -42 0
-36 -43 0
-36 -44 0
-36 -45 0
-36 -54 0
-39 -36 0
-39 -42 0
-39 -43 0
-39 -44 0
-39 -45 0
-39 -54 0
-42 -36 0
-42 -39 0
-42 -43 0
-42 -44 0
-42 -45 0
-42 -54 0
-43 -36 0
-43 -39 0
-43 -42 0
-43 -44 0
-43 -45 0
-43 -54 0
-44 -36 0
-44 -39 0
-44 -42 0
-44 -43 0
-44 -45 0
-44 -54 0
-45 -36 0
-45 -39 0
-45 -42 0
-45 -43 0
-45 -44 0
-45 -54 0
-54 -36 0
-54 -39 0
-54 -42 0
-54 -43 0
-54 -44 0
-54 -45 0
37 46 47 48 49 52 55 0
-37 -46 0
-37 -47 0
-37 -48 0
-37 -49 0
-37 -52 0
-37 -55 0
-46 -37 0
-46 -47 0
-46 -48 0
-46 -49 0
-46 -52 0
-46 -55 0
-47 -37 0
-47 -46 0
-47 -48 0
-47 -49 0
-47 -52 0
-47 -55 0
-48 -37 0
-48 -46 0
-48 -47 0
-48 -49 0
-48 -52 0
-48 -55 0
-49 -37 0
-49 -46 0
-49 -47 0
-49 -48 0
-49 -52 0
-49 -55 0
-52 -37 0
-52 -46 0
-52 -47 0
-52 -48 0
-52 -49 0
-52 -55 0
-55 -37 0
-55 -46 0
-55 -47 0
-55 -48 0
-55 -49 0
-55 -52 0
38 46 47 48 50 53 56 0
-38 -46 0
-38 -47 0
-38 -48 0
-38 -50 0
-38 -53 0
-38 -56 0
-46 -38 0
-46 -47 0
-46 -48 0
-46 -50 0
-46 -53 0
-46 -56 0
-47 -38 0
-47 -46 0
-47 -48 0
-47 -50 0
-47 -53 0
-47 -56 0
-48 -38 0
-48 -46 0
-48 -47 0
-48 -50 0
-48 -53 0
-48 -56 0
-50 -38 0
-50 -46 0
-50 -47 0
-50 -48 0
-50 -53 0
-50 -56 0
-53 -38 0
-53 -46 0
-53 -47 0
-53 -48 0
-53 -50 0
-53 -56 0
-56 -38 0
-56 -46 0
-56 -47 0
-56 -48 0
-56 -50 0
-56 -53 0
39 46 47 48 51 54 57 0
-39 -46 0
-39 -47 0
-39 -48 0
-39 -51 0
-39 -54 0
-39 -57 0
-46 -39 0
-46 -47 0
-46 -48 0
-46 -51 0
-46 -54 0
-46 -57 0
-47 -39 0
-47 -46 0
-47 -48 0
-47 -51 0
-47 -54 0
-47 -57 0
-48 -39 0
-48 -46 0
-48 -47 0
-48 -51 0
-48 -54 0
-48 -57 0
-51 -39 0
-51 -46 0
-51 -47 0
-51 -48 0
-51 -54 0
-51 -57 0
-54 -39 0
-54 -46 0
-54 -47 0
-54 -48 0
-54 -51 0
-54 -57 0
-57 -39 0
-57 -46 0
-57 -47 0
-57 -48 0
-57 -51 0
-57 -54 0
40 46 49 50 51 52 58 0
-40 -46 0
-40 -49 0
-40 -50 0
-40 -51 0
-40 -52 0
-40 -58 0
-46 -40 0
-46 -49 0
-46 -50 0
-46 -51 0
-46 -52 0
-46 -58 0
-49 -40 0
-49 -46 0
-49 -50 0
-49 -51 0
-49 -52 0
-49 -58 0
-50 -40 0
-50 -46 0
-50 -49 0
-50 -51 0
-50 -52 0
-50 -58 0
-51 -40 0
-51 -46 0
-51 -49 0
-51 -50 0
-51 -52 0
-51 -58 0
-52 -40 0
-52 -46 0
-52 -49 0
-52 -50 0
-52 -51 0
-52 -58 0
-58 -40 0
-58 -46 0
-58 -49 0
-58 -50 0
-58 -51 0
-58 -52 0
41 47 49 50 51 53 59 0
-41 -47 0
-41 -49 0
-41 -50 0
-41 -51 0
-41 -53 0
-41 -59 0
-47 -41 0
-47 -49 0
-47 -50 0
-47 -51 0
-47 -53 0
-47 -59 0
-49 -41 0
-49 -47 0
-49 -50 0
-49 -51 0
-49 -53 0
-49 -59 0
-50 -41 0
-50 -47 0
-50 -49 0
-50 -51 0
-50 -53 0
-50 -59 0
-51 -41 0
-51 -47 0
-51 -49 0
-51 -50 0
-51 -53 0
-51 -59 0
-53 -41 0
-53 -47 0
-53 -49 0
-53 -50 0
-53 -51 0
-53 -59 0
-59 -41 0
-59 -47 0
-59 -49 0
-59 -50 0
-59 -51 0
-59 -53 0
42 48 49 50 51 54 60 0
-42 -48 0
-42 -49 0
-42 -50 0
-42 -51 0
-42 -54 0
-42 -60 0
-48 -42 0
-48 -49 0
-48 -50 0
-48 -51 0
-48 -54 0
-48 -60 0
-49 -42 0
-49 -48 0
-49 -50 0
-49 -51 0
-49 -54 0
-49 -60 0
-50 -42 0
-50 -48 0
-50 -49 0
-50 -51 0
-50 -54 0
-50 -60 0
-51 -42 0
-51 -48 0
-51 -49 0
-51 -50 0
-51 -54 0
-51 -60 0
-54 -42 0
-54 -48 0
-54 -49 0
-54 -50 0
-54 -51 0
-54 -60 0
-60 -42 0
-60 -48 0
-60 -49 0
-60 -50 0
-60 -51 0
-60 -54 0
43 46 49 52 53 54 61 0
-43 -46 0
-43 -49 0
-43 -52 0
-43 -53 0
-43 -54 0
-43 -61 0
-46 -43 0
-46 -49 0
-46 -52 0
-46 -53 0
-46 -54 0
-46 -61 0
-49 -43 0
-49 -46 0
-49 -52 0
-49 -53 0
-49 -54 0
-49 -61 0
-52 -43 0
-52 -46 0
-52 -49 0
-52 -53 0
-52 -54 0
-52 -61 0
-53 -43 0
-53 -46 0
-53 -49 0
-53 -52 0
-53 -54 0
-53 -61 0
-54 -43 0
-54 -46 0
-54 -49 0
-54 -52 0
-54 -53 0
-54 -61 0
-61 -43 0
-61 -46 0
-61 -49 0
-61 -52 0
-61 -53 0
-61 -54 0
44 47 50 52 53 54 62 0
-44 -47 0
-44 -50 0
-44 -52 0
-44 -53 0
-44 -54 0
-44 -62 0
-47 -44 0
-47 -50 0
-47 -52 0
-47 -53 0
-47 -54 0
-47 -62 0
-50 -44 0
-50 -47 0
-50 -52 0
-50 -53 0
-50 -54 0
-50 -62 0
-52 -44 0
-52 -47 0
-52 -50 0
-52 -53 0
-52 -54 0
-52 -62 0
-53 -44 0
-53 -47 0
-53 -50 0
-53 -52 0
-53 -54 0
-53 -62 0
-54 -44 0
-54 -47 0
-54 -50 0
-54 -52 0
-54 -53 0
-54 -62 0
-62 -44 0
-62 -47 0
-62 -50 0
-62 -52 0
-62 -53 0
-62 -54 0
45 48 51 52 53 54 63 0
-45 -48 0
-45 -51 0
-45 -52 0
-45 -53 0
-45 -54 0
-45 -63 0
-48 -45 0
-48 -51 0
-48 -52 0
-48 -53 0
-48 -54 0
-48 -63 0
-51 -45 0
-51 -48 0
-51 -52 0
-51 -53 0
-51 -54 0
-51 -63 0
-52 -45 0
-52 -48 0
-52 -51 0
-52 -53 0
-52 -54 0
-52 -63 0
-53 -45 0
-53 -48 0
-53 -51 0
-53 -52 0
-53 -54 0
-53 -63 0
-54 -45 0
-54 -48 0
-54 -51 0
-54 -52 0
-54 -53 0
-54 -63 0
-63 -45 0
-63 -48 0
-63 -51 0
-63 -52 0
-63 -53 0
-63 -54 0